
Gurobi 9.5.2 (mac64[arm]) logging started Sun Apr 30 16:31:03 2023

Set parameter LogFile to value "Java/output/special_mip/scenario_seed_0_nJob_50_machineCount_1/mip_increment_1/log.txt"
Gurobi Optimizer version 9.5.2 build v9.5.2rc0 (mac64[arm])
Thread count: 8 physical cores, 8 logical processors, using up to 8 threads
Optimize a model with 3628 rows, 84450 columns and 1050548 nonzeros
Model fingerprint: 0x421d031f
Variable types: 0 continuous, 84450 integer (84450 binary)
Coefficient statistics:
  Matrix range     [1e+00, 6e+02]
  Objective range  [1e+00, 2e+07]
  Bounds range     [1e+00, 1e+00]
  RHS range        [1e+00, 1e+00]
Presolve removed 17 rows and 3647 columns
Presolve time: 1.05s
Presolved: 3611 rows, 80803 columns, 992351 nonzeros
Variable types: 0 continuous, 80803 integer (80775 binary)

Root simplex log...

Iteration    Objective       Primal Inf.    Dual Inf.      Time
   20765    2.8724987e+04   1.095293e+05   0.000000e+00      5s
Warning: Markowitz tolerance tightened to 0.03125
   40356    3.1796514e+04   1.961760e+05   0.000000e+00     10s
   57905    3.2347194e+04   1.939854e+03   0.000000e+00     15s
   59222    3.2350728e+04   0.000000e+00   0.000000e+00     16s

Root relaxation: objective 3.235073e+04, 59222 iterations, 14.26 seconds (37.33 work units)

    Nodes    |    Current Node    |     Objective Bounds      |     Work
 Expl Unexpl |  Obj  Depth IntInf | Incumbent    BestBd   Gap | It/Node Time

     0     0 32350.7275    0  430          - 32350.7275      -     -   16s
     0     0 32381.6015    0  770          - 32381.6015      -     -   20s
     0     0 32391.2126    0  747          - 32391.2126      -     -   24s
     0     0 32392.0850    0  766          - 32392.0850      -     -   24s
     0     0 32392.0850    0  766          - 32392.0850      -     -   24s
     0     0 32399.6878    0  904          - 32399.6878      -     -   30s
     0     0 32400.9434    0  885          - 32400.9434      -     -   32s
     0     0 32407.7570    0  900          - 32407.7570      -     -   35s
     0     0 32407.7707    0  889          - 32407.7707      -     -   35s
     0     0 32407.7714    0  906          - 32407.7714      -     -   35s
     0     0 32412.9246    0  920          - 32412.9246      -     -   40s
     0     0 32414.2786    0  947          - 32414.2786      -     -   42s
     0     0 32414.4030    0  947          - 32414.4030      -     -   42s
     0     0 32414.4050    0  950          - 32414.4050      -     -   42s
     0     0 32417.9084    0  934          - 32417.9084      -     -   45s
     0     0 32418.7546    0 1002          - 32418.7546      -     -   46s
     0     0 32418.7704    0  997          - 32418.7704      -     -   46s
     0     0 32424.4239    0  999          - 32424.4239      -     -   50s
     0     0 32425.0967    0 1058          - 32425.0967      -     -   51s
     0     0 32425.8347    0 1039          - 32425.8347      -     -   53s
     0     0 32425.8601    0 1059          - 32425.8601      -     -   53s
     0     0 32425.9098    0 1053          - 32425.9098      -     -   53s
     0     0 32425.9176    0 1052          - 32425.9176      -     -   54s
     0     0 32428.4341    0 1059          - 32428.4341      -     -   57s
     0     0 32429.5489    0 1098          - 32429.5489      -     -   59s
     0     0 32429.6191    0 1124          - 32429.6191      -     -   60s
     0     0 32429.6212    0 1128          - 32429.6212      -     -   60s
     0     0 32432.8975    0 1158          - 32432.8975      -     -   64s
     0     0 32433.1148    0 1127          - 32433.1148      -     -   65s
     0     0 32433.3476    0 1158          - 32433.3476      -     -   66s
     0     0 32433.3699    0 1161          - 32433.3699      -     -   66s
     0     0 32438.4085    0 1152          - 32438.4085      -     -   72s
     0     0 32439.3402    0 1179          - 32439.3402      -     -   74s
     0     0 32439.4201    0 1190          - 32439.4201      -     -   75s
     0     0 32439.4294    0 1185          - 32439.4294      -     -   75s
     0     0 32443.1783    0 1218          - 32443.1783      -     -   78s
     0     0 32443.6793    0 1254          - 32443.6793      -     -   80s
     0     0 32443.7881    0 1273          - 32443.7881      -     -   81s
     0     0 32443.8068    0 1263          - 32443.8068      -     -   81s
     0     0 32446.6937    0 1292          - 32446.6937      -     -   85s
     0     0 32448.1492    0 1292          - 32448.1492      -     -   88s
     0     0 32448.2631    0 1310          - 32448.2631      -     -   89s
     0     0 32448.2747    0 1320          - 32448.2747      -     -   89s
     0     0 32452.0009    0 1292          - 32452.0009      -     -   94s
     0     0 32452.2708    0 1283          - 32452.2708      -     -   95s
     0     0 32452.2958    0 1307          - 32452.2958      -     -   96s
     0     0 32455.2981    0 1309          - 32455.2981      -     -  100s
     0     0 32455.5818    0 1341          - 32455.5818      -     -  101s
     0     0 32455.6350    0 1356          - 32455.6350      -     -  102s
     0     0 32455.6356    0 1345          - 32455.6356      -     -  102s
     0     0 32459.1234    0 1320          - 32459.1234      -     -  106s
     0     0 32459.5102    0 1351          - 32459.5102      -     -  108s
     0     0 32459.5304    0 1348          - 32459.5304      -     -  108s
     0     0 32464.1216    0 1349          - 32464.1216      -     -  112s
     0     0 32465.1846    0 1382          - 32465.1846      -     -  115s
     0     0 32465.3263    0 1393          - 32465.3263      -     -  116s
     0     0 32465.3784    0 1413          - 32465.3784      -     -  116s
     0     0 32465.4066    0 1399          - 32465.4066      -     -  117s
     0     0 32468.2894    0 1403          - 32468.2894      -     -  122s
     0     0 32468.6921    0 1431          - 32468.6921      -     -  123s
     0     0 32468.7091    0 1457          - 32468.7091      -     -  124s
     0     0 32470.7124    0 1442          - 32470.7124      -     -  127s
     0     0 32470.9450    0 1442          - 32470.9450      -     -  129s
     0     0 32470.9877    0 1465          - 32470.9877      -     -  129s
     0     0 32471.9997    0 1433          - 32471.9997      -     -  132s
     0     0 32472.0707    0 1434          - 32472.0707      -     -  133s
     0     0 32472.0952    0 1457          - 32472.0952      -     -  133s
     0     0 32474.1197    0 1452          - 32474.1197      -     -  137s
     0     0 32474.3156    0 1474          - 32474.3156      -     -  138s
     0     0 32474.4317    0 1475          - 32474.4317      -     -  139s
     0     0 32474.4563    0 1483          - 32474.4563      -     -  139s
     0     0 32474.9302    0 1472          - 32474.9302      -     -  141s
     0     0 32475.2196    0 1492          - 32475.2196      -     -  143s
     0     0 32475.2397    0 1501          - 32475.2397      -     -  143s
     0     0 32475.8062    0 1503          - 32475.8062      -     -  145s
     0     0 32475.9217    0 1516          - 32475.9217      -     -  146s
     0     0 32475.9373    0 1530          - 32475.9373      -     -  147s
     0     0 32476.0533    0 1510          - 32476.0533      -     -  148s
H    0     0                    6.500774e+07 32476.0533   100%     -  148s
     0     0 32476.0533    0 1499 6.5008e+07 32476.0533   100%     -  149s
H    0     0                    3.056347e+07 32476.0533   100%     -  174s
H    0     0                    2531642.0000 32476.0583  98.7%     -  206s
H    0     2                    2409378.0000 32476.0583  98.7%     -  207s
     0     2 32476.0583    0 1491 2409378.00 32476.0583  98.7%     -  207s
     1     4 32491.9779    1 1341 2409378.00 32476.0583  98.7%  9919  215s
     7    14 32520.0220    3 1322 2409378.00 32476.5050  98.7%  5179  230s
    15    22 32523.2723    4 1306 2409378.00 32476.5975  98.7%  5388  245s
    23    30 32526.1302    5 1321 2409378.00 32476.5975  98.7%  7385  285s
    31    36 infeasible    5      2409378.00 32476.7819  98.7%  9931  302s
H   32    36                    2409364.0000 32476.7819  98.7%  9621  302s
H   32    36                    2204030.0000 32476.7819  98.5%  9621  302s
H   33    36                    553014.00000 32476.7819  94.1%  9330  302s
    39    44 32526.7563    6 1318 553014.000 32476.7837  94.1%  8603  309s
    47    55 32570.8486    6 1324 553014.000 32476.8101  94.1%  8101  322s
    58    64 32530.8403    7 1318 553014.000 32476.8101  94.1%  7187  336s
H   67    72                    520662.00000 32476.8101  93.8%  7269  358s
H   68    72                    391076.00000 32476.8101  91.7%  7235  358s
H   71    72                    370004.00000 32476.8101  91.2%  7077  358s
    75    80 32539.4898    8 1320 370004.000 32476.8101  91.2%  6947  370s
    83    91 32539.6434    8 1253 370004.000 32476.8101  91.2%  6921  392s
H   94   103                    369868.00000 32476.8101  91.2%  7095  410s
H  106   111                    368733.00000 32476.8101  91.2%  6814  431s
H  106   111                    230100.00000 32476.8101  85.9%  6814  431s
H  110   111                    142825.00000 32476.8101  77.3%  6701  431s
   114   124 32540.4519   11 1296 142825.000 32476.8101  77.3%  6664  448s
   129   139 infeasible   12      142825.000 32476.8101  77.3%  6536  466s
H  146   153                    141560.00000 32476.8101  77.1%  6277  485s
H  146   153                    98620.000000 32476.8101  67.1%  6277  485s
H  153   153                    91782.000000 32476.8101  64.6%  6322  485s
   160   166 32542.7020   18 1297 91782.0000 32476.8101  64.6%  6127  509s
   173   181 32543.0503   19 1310 91782.0000 32476.8101  64.6%  6458  537s
H  192   199                    88583.000000 32476.8101  63.3%  6645  565s
H  200   199                    88205.000000 32476.8101  63.2%  6584  565s
   212   221 32544.7670   25 1310 88205.0000 32476.8101  63.2%  6440  591s
   234   239 32545.1226   26 1311 88205.0000 32476.8101  63.2%  6374  600s
H  235   239                    87477.000000 32476.8101  62.9%  6347  600s
H  237   239                    64961.000000 32476.8101  50.0%  6295  600s

Cutting planes:
  Cover: 9
  Clique: 601
  MIR: 125
  StrongCG: 10
  GUB cover: 452
  Zero half: 6
  RLT: 6
  Relax-and-lift: 14

Explored 252 nodes (1762626 simplex iterations) in 600.05 seconds (1968.94 work units)
Thread count was 8 (of 8 available processors)

Solution count 10: 64961 87477 88205 ... 368733

Time limit reached
Best objective 6.496100000000e+04, best bound 3.247681014004e+04, gap 50.0057%
